============================[ Problem Statistics ]=============================|                                                                             ||  Number of variables:          4242                                         ||  Number of clauses:           10375                                         ||  Parse time:                   0.76 s                                       ||                                                                             |============================[ Search Statistics ]==============================| Conflicts |          ORIGINAL         |          LEARNT          | Progress ||           |    Vars  Clauses Literals |    Limit  Clauses Lit/Cl |          |===============================================================================|       100 |    1591     6580  1216181 |     2412      100     53 | 62.501 % ||       250 |    1591     6580  1216181 |     2653      250     75 | 62.495 % |===============================================================================restarts              : 4conflicts             : 412            (359 /sec)decisions             : 772            (0.00 % random) (673 /sec)propagations          : 13668          (11916 /sec)conflict literals     : 34370          (94.52 % deleted)CPU time              : 1.147 sSATISFIABLE